set FOOD:= bread meat potatoes cabbage milk gelatin;
set NUTR:= calories protein calcium vitamin;


param price:= 
bread		0.3
meat		1
potatoes	0.05
cabbage		0.08
milk		0.23
gelatin		0.48;	

param require:=
calories	3000
protein		70
calcium		800
vitamin		500;

param portion:
			bread 	meat 	potatoes 	cabbage 	milk 	gelatin:=
calories	1254	1457	318			46			309		1725
protein		39		73		8			4			16		43
calcium		418		41		42			141			536		0
vitamin		0		0		70			860			720		0;